p tw 50 624
e 0 1
e 0 3
e 0 6
e 0 7
e 0 9
e 0 10
e 0 12
e 0 14
e 0 16
e 0 22
e 0 25
e 0 26
e 0 28
e 0 33
e 0 35
e 0 38
e 0 39
e 0 40
e 0 42
e 0 44
e 0 46
e 0 47
e 1 8
e 1 14
e 1 17
e 1 18
e 1 21
e 1 23
e 1 24
e 1 25
e 1 28
e 1 30
e 1 32
e 1 37
e 1 38
e 1 40
e 1 41
e 1 42
e 1 44
e 1 45
e 1 47
e 2 3
e 2 4
e 2 12
e 2 14
e 2 15
e 2 19
e 2 20
e 2 22
e 2 25
e 2 27
e 2 29
e 2 32
e 2 33
e 2 36
e 2 37
e 2 39
e 2 40
e 2 41
e 2 42
e 2 44
e 2 45
e 2 47
e 3 4
e 3 5
e 3 7
e 3 8
e 3 9
e 3 11
e 3 12
e 3 13
e 3 15
e 3 17
e 3 18
e 3 21
e 3 22
e 3 23
e 3 25
e 3 28
e 3 29
e 3 33
e 3 34
e 3 35
e 3 37
e 3 38
e 3 39
e 3 40
e 3 41
e 3 43
e 3 44
e 3 48
e 4 6
e 4 11
e 4 12
e 4 13
e 4 14
e 4 16
e 4 18
e 4 25
e 4 27
e 4 28
e 4 31
e 4 34
e 4 35
e 4 37
e 4 39
e 4 40
e 4 43
e 4 48
e 5 7
e 5 8
e 5 9
e 5 11
e 5 12
e 5 14
e 5 15
e 5 16
e 5 17
e 5 18
e 5 21
e 5 23
e 5 24
e 5 25
e 5 28
e 5 29
e 5 30
e 5 31
e 5 34
e 5 35
e 5 36
e 5 37
e 5 40
e 5 43
e 5 44
e 5 45
e 5 47
e 5 49
e 6 7
e 6 10
e 6 11
e 6 12
e 6 15
e 6 18
e 6 19
e 6 20
e 6 28
e 6 30
e 6 31
e 6 33
e 6 34
e 6 35
e 6 37
e 6 38
e 6 40
e 6 47
e 7 9
e 7 12
e 7 13
e 7 16
e 7 17
e 7 18
e 7 21
e 7 22
e 7 23
e 7 24
e 7 25
e 7 26
e 7 29
e 7 31
e 7 36
e 7 39
e 7 40
e 7 44
e 7 46
e 7 47
e 7 48
e 8 9
e 8 10
e 8 13
e 8 15
e 8 18
e 8 19
e 8 20
e 8 21
e 8 22
e 8 23
e 8 24
e 8 25
e 8 27
e 8 29
e 8 31
e 8 35
e 8 38
e 8 41
e 8 42
e 8 43
e 8 48
e 8 49
e 9 10
e 9 11
e 9 15
e 9 17
e 9 18
e 9 20
e 9 21
e 9 23
e 9 24
e 9 27
e 9 28
e 9 29
e 9 30
e 9 31
e 9 34
e 9 36
e 9 37
e 9 39
e 9 42
e 9 44
e 9 47
e 10 12
e 10 17
e 10 18
e 10 19
e 10 23
e 10 26
e 10 29
e 10 31
e 10 32
e 10 37
e 10 38
e 10 39
e 10 40
e 10 45
e 10 46
e 10 47
e 10 49
e 11 13
e 11 15
e 11 16
e 11 17
e 11 20
e 11 22
e 11 23
e 11 24
e 11 25
e 11 28
e 11 29
e 11 30
e 11 35
e 11 36
e 11 37
e 11 40
e 11 41
e 11 43
e 11 47
e 12 16
e 12 18
e 12 21
e 12 24
e 12 26
e 12 27
e 12 29
e 12 32
e 12 36
e 12 39
e 12 40
e 12 41
e 12 42
e 12 45
e 12 48
e 13 18
e 13 22
e 13 24
e 13 25
e 13 26
e 13 27
e 13 28
e 13 29
e 13 30
e 13 33
e 13 35
e 13 36
e 13 38
e 13 39
e 13 42
e 13 43
e 13 46
e 13 47
e 13 48
e 14 15
e 14 16
e 14 17
e 14 18
e 14 19
e 14 20
e 14 21
e 14 22
e 14 23
e 14 24
e 14 25
e 14 26
e 14 27
e 14 28
e 14 29
e 14 31
e 14 32
e 14 33
e 14 34
e 14 36
e 14 37
e 14 38
e 14 39
e 14 41
e 14 42
e 14 43
e 14 45
e 14 47
e 14 49
e 15 16
e 15 17
e 15 20
e 15 21
e 15 25
e 15 26
e 15 27
e 15 28
e 15 29
e 15 30
e 15 33
e 15 35
e 15 39
e 15 40
e 15 43
e 15 44
e 15 46
e 15 47
e 15 48
e 16 18
e 16 24
e 16 25
e 16 26
e 16 28
e 16 29
e 16 30
e 16 34
e 16 35
e 16 36
e 16 38
e 16 39
e 16 42
e 16 43
e 16 48
e 17 19
e 17 20
e 17 21
e 17 22
e 17 24
e 17 26
e 17 27
e 17 29
e 17 30
e 17 31
e 17 34
e 17 35
e 17 37
e 17 39
e 17 44
e 17 45
e 17 46
e 17 48
e 17 49
e 18 20
e 18 22
e 18 23
e 18 24
e 18 30
e 18 32
e 18 33
e 18 37
e 18 39
e 18 41
e 18 42
e 18 43
e 18 44
e 18 47
e 19 20
e 19 21
e 19 23
e 19 24
e 19 25
e 19 26
e 19 27
e 19 35
e 19 39
e 19 41
e 19 44
e 19 46
e 19 47
e 19 49
e 20 23
e 20 25
e 20 26
e 20 27
e 20 30
e 20 31
e 20 32
e 20 33
e 20 34
e 20 35
e 20 41
e 20 42
e 20 43
e 20 44
e 20 47
e 20 49
e 21 22
e 21 25
e 21 26
e 21 28
e 21 29
e 21 32
e 21 33
e 21 34
e 21 36
e 21 40
e 21 41
e 21 42
e 21 43
e 21 44
e 21 45
e 21 47
e 21 48
e 21 49
e 22 24
e 22 25
e 22 26
e 22 27
e 22 32
e 22 33
e 22 39
e 22 40
e 22 41
e 22 45
e 23 24
e 23 26
e 23 27
e 23 31
e 23 32
e 23 33
e 23 35
e 23 37
e 23 38
e 23 40
e 23 45
e 23 48
e 23 49
e 24 27
e 24 29
e 24 34
e 24 36
e 24 37
e 24 39
e 24 40
e 24 43
e 24 44
e 24 45
e 24 46
e 24 47
e 24 49
e 25 26
e 25 27
e 25 28
e 25 34
e 25 35
e 25 37
e 25 38
e 25 39
e 25 40
e 25 42
e 25 43
e 25 45
e 25 47
e 26 28
e 26 29
e 26 31
e 26 32
e 26 35
e 26 38
e 26 39
e 26 40
e 26 42
e 26 43
e 26 44
e 26 45
e 26 46
e 26 48
e 26 49
e 27 31
e 27 32
e 27 34
e 27 36
e 27 37
e 27 38
e 27 42
e 27 44
e 27 47
e 28 30
e 28 33
e 28 34
e 28 35
e 28 36
e 28 38
e 28 40
e 28 41
e 28 48
e 29 30
e 29 31
e 29 33
e 29 35
e 29 36
e 29 37
e 29 43
e 29 45
e 29 46
e 29 49
e 30 32
e 30 34
e 30 35
e 30 40
e 30 42
e 30 43
e 30 46
e 30 48
e 31 32
e 31 33
e 31 36
e 31 39
e 31 40
e 31 42
e 31 43
e 31 47
e 31 48
e 31 49
e 32 34
e 32 35
e 32 36
e 32 37
e 32 38
e 32 46
e 32 48
e 33 34
e 33 35
e 33 37
e 33 38
e 33 41
e 33 42
e 33 43
e 33 44
e 33 46
e 33 47
e 33 48
e 34 35
e 34 38
e 34 39
e 34 42
e 34 43
e 34 46
e 34 47
e 34 48
e 34 49
e 35 38
e 35 39
e 35 42
e 35 43
e 35 44
e 35 46
e 36 37
e 36 38
e 36 39
e 36 42
e 36 46
e 36 47
e 36 49
e 37 40
e 37 45
e 37 46
e 37 47
e 37 48
e 37 49
e 38 40
e 38 43
e 38 45
e 38 46
e 38 47
e 38 48
e 38 49
e 39 40
e 39 43
e 39 44
e 39 45
e 39 46
e 39 47
e 39 48
e 40 41
e 40 42
e 40 43
e 40 44
e 40 46
e 40 48
e 41 43
e 41 45
e 41 49
e 42 43
e 42 46
e 42 48
e 43 45
e 43 48
e 44 45
e 44 46
e 44 48
e 45 47
e 46 47
e 47 48
e 47 49
